============================[ Problem Statistics ]=============================
|                                                                             |
|  Number of variables:        377084                                         |
|  Number of clauses:         1227752                                         |
|  Parse time:                   0.23 s                                       |
|  Eliminated clauses:          16.38 Mb                                      |
|  Simplification time:          1.18 s                                       |
|                                                                             |
============================[ Search Statistics ]==============================
| Conflicts |          ORIGINAL         |          LEARNT          | Progress |
|           |    Vars  Clauses Literals |    Limit  Clauses Lit/Cl |          |
===============================================================================
|       100 |   83216   623172  2354292 |   228496      100     14 |  0.000 % |
|       250 |   83216   623172  2354292 |   251346      250     15 |  0.000 % |
|       475 |   83216   623172  2354292 |   276480      475     13 |  0.000 % |
|       812 |   83216   623172  2354292 |   304128      812     13 |  0.000 % |
|      1318 |   83216   623172  2354292 |   334541     1318     14 |  0.000 % |
|      2077 |   83216   623172  2354292 |   367995     2077     19 |  0.000 % |
|      3216 |   83216   623172  2354292 |   404795     3216     39 |  0.000 % |
|      4924 |   83216   623172  2354292 |   445274     4924     32 |  0.000 % |
|      7486 |   83216   623172  2354292 |   489802     7486     28 |  0.000 % |
|     11330 |   83216   623172  2354292 |   538782    11330     29 |  0.000 % |
|     17096 |   83216   623172  2354292 |   592660    17096     32 |  0.000 % |
|     25745 |   83216   623172  2354292 |   651926    25745     37 |  0.000 % |
|     38719 |   83216   623172  2354292 |   717119    38719     33 |  0.000 % |
|     58180 |   83216   623172  2354292 |   788831    58180     36 |  0.000 % |
|     87372 |   83216   623172  2354292 |   867714    87372     39 |  0.000 % |
|    131161 |   83216   623172  2354292 |   954486   131161     65 |  0.000 % |
|    196845 |   83216   623172  2354292 |  1049934   196845     68 |  0.000 % |
|    295371 |   83216   623172  2354292 |  1154928   295371     65 |  0.000 % |
|    443160 |   83216   623172  2354292 |  1270421   443160     69 |  0.000 % |
|    664843 |   83216   623172  2354292 |  1397463   664843     90 |  0.000 % |
|    997368 |   83216   623172  2354292 |  1537209   997368     94 |  0.000 % |
|   1496156 |   83216   623172  2354292 |  1690930  1496156    104 |  0.000 % |
|   2244338 |   83216   623172  2354292 |  1860023   602879    106 |  0.000 % |
|   3366612 |   83216   623172  2354292 |  2046025  1725153    143 |  0.000 % |
|   5050023 |   83215   623169  2354286 |  2250628  1397497    167 |  0.001 % |
===============================================================================
restarts              : 11928
conflicts             : 7250914        (2597 /sec)
decisions             : 23210158       (0.00 % random) (8314 /sec)
propagations          : 11991788789    (4295635 /sec)
conflict literals     : 1051393076     (42.10 % deleted)
Memory used           : 1214.36 MB
CPU time              : 2791.62 s

INDETERMINATE
File /Users/damy17/Documents/hw-uni/master-1-uvt/verificare-formala/benchmark/input-files/benchmarkfile2.cnf timed out after 2880 seconds.
